p cnf 10 37
-9 -5 -1 0
-3 -1 4 -8 0
-8 -1 -7 -3 4 0
1 8 0
-5 -4 2 -6 0
-8 -9 5 1 0
-7 -5 -10 0
5 -9 10 7 6 0
2 6 5 0
1 3 -4 0
-5 4 -3 8 9 6 7 -2 0
-6 8 -3 -1 -5 7 -10 -9 4 0
-1 -4 -10 2 0
-10 -5 0
9 8 -1 -10 3 7 2 -5 -4 6 0
-3 -8 0
-3 4 8 -9 -5 0
-5 -4 -7 0
-1 3 -7 6 0
-7 -4 0
-9 -10 -5 -4 0
4 2 -8 -10 -6 3 1 0
-8 6 0
2 9 -7 0
-7 5 4 0
4 9 -5 0
-8 -6 4 -1 2 0
2 10 0
8 -10 3 1 -7 -5 2 0
1 -4 6 9 10 -3 8 -7 0
7 -8 -2 0
7 8 0
6 4 8 7 0
-4 8 0
1 4 9 8 2 10 6 -3 -5 7 0
8 -6 7 0
2 -8 -7 0
